* Signature: 0xeb15b0f6f0508c8c
NAME lp_typeD_119
OBJSENSE MAX
ROWS
 N  OBJ
 L  c0      
 G  c1      
 G  c2      
 L  c_key_upper
 G  c_key_lower
 G  _chain_constr_1
 G  _chain_constr_2
 G  _chain_cycle
COLUMNS
    x0        OBJ       6.4301631453411778e-01
    x0        c0        7.2552996789095359e-01
    x0        c1        7.6768405506402715e-01
    x0        c2        1.9611387098407040e+00
    x0        c_key_upper  1.6009319867150218e+00
    x0        c_key_lower  1.6009319867150218e+00
    x1        OBJ       1.1402600001763989e+00
    x1        c0        1.3259367845725629e+00
    x1        c1        8.0342601982531470e-01
    x1        c2        1.4659958552319838e+00
    x1        c_key_upper  1.0757863289288268e+00
    x1        c_key_lower  1.0757863289288268e+00
    x2        OBJ       1.4877089970928234e+00
    x2        c0        9.1565957625267491e-01
    x2        c1        6.6034071104727210e-01
    x2        c2        1.2564030938770285e+00
    x2        c_key_upper  1.4812143939372038e+00
    x2        c_key_lower  1.4812143939372038e+00
    x3        OBJ       1.0332753565603805e+00
    x3        c0        1.9349635097766382e+00
    x3        c1        1.3256490130148169e+00
    x3        c2        7.2363143567381649e-01
    x3        c_key_upper  1.4994610445881529e+00
    x3        c_key_lower  1.4994610445881529e+00
    x4        OBJ       1.3593519572623780e+00
    x4        c0        7.0927749656920780e-01
    x4        c1        7.8930122076484688e-01
    x4        c2        1.0290589276641804e+00
    x4        c_key_upper  1.58099070181316
    x4        c_key_lower  1.58099070181316
    x5        OBJ       6.6216045041699667e-01
    x5        c0        0.980129959173279
    x5        c1        1.3138726585094558e+00
    x5        c2        1.2808567651073504e+00
    x5        c_key_upper  1.2784553688075064e+00
    x5        c_key_lower  1.2784553688075064e+00
    _chain_var_0  _chain_constr_1  -1
    _chain_var_0  _chain_cycle  1
    _chain_var_1  _chain_constr_1  1
    _chain_var_1  _chain_constr_2  -1
    _chain_var_2  _chain_constr_2  1
    _chain_var_2  _chain_cycle  -1
RHS
    RHS1      c0        2.9390749158064860e+01
    RHS1      c1        9.0744235785426373e+00
    RHS1      c2        1.0790141542120175e+01
    RHS1      c_key_upper  4.2584199123949361e+01
    RHS1      c_key_lower  2.1292099561974680e+01
    RHS1      _chain_constr_1  10
    RHS1      _chain_constr_2  10
    RHS1      _chain_cycle  10
BOUNDS
 UP BND1      x0        10
 UP BND1      x1        10
 UP BND1      x2        10
 UP BND1      x3        10
 UP BND1      x4        10
 UP BND1      x5        10
 UP BND1      _chain_var_0  100
 UP BND1      _chain_var_1  100
 UP BND1      _chain_var_2  100
ENDATA
